196
0 103 178 57 168 139 190 8 9 14 
155 188 123 165 84 75 58 33 121 194 
192 159 95 106 110 71 140 130 74 22 
141 177 16 99 82 47 28 161 156 145 
122 17 94 89 67 46 79 131 15 185 
40 146 193 38 129 34 117 80 147 109 
191 148 26 23 135 69 163 4 60 90 
77 170 152 101 25 85 174 102 76 42 
32 169 164 187 149 125 162 105 175 61 
6 65 154 51 180 29 70 72 18 116 
183 142 114 63 36 52 111 10 39 172 
30 97 19 184 179 44 100 86 91 108 
98 151 13 143 50 66 56 7 31 166 
43 195 133 112 128 160 93 186 137 134 
176 37 104 132 21 88 68 45 5 124 
12 87 127 181 24 53 1 20 171 49 
157 35 158 48 73 189 78 182 107 27 
11 41 64 136 62 120 54 118 2 119 
83 144 92 126 81 96 150 153 55 59 
115 167 138 113 3 173 
